CMPL model generation - running

CMPL version: 1.11.0
Authors: Thomas Schleiff, Mike Steglich
Distributed under the GPLv3 

create model instance ...
write model instance ...
CMPL model generation - finished

Solver - running


Welcome to IBM(R) ILOG(R) CPLEX(R) Interactive Optimizer 12.7.1.0
  with Simplex, Mixed Integer & Barrier Optimizers
5725-A06 5725-A29 5724-Y48 5724-Y49 5724-Y54 5724-Y55 5655-Y21
Copyright IBM Corp. 1988, 2017.  All Rights Reserved.

Type 'help' for a list of available commands.
Type 'help' followed by a command name for more
information on commands.

CPLEX> Specified objective sense: MINIMIZE
Selected objective  name:  line[1]
Selected RHS        name:  RHS
Selected bound      name:  BOUND
Problem '/tmp/cmpl.T24497.mps' read.
Read time = 0.05 sec. (8.18 ticks)
CPLEX> CPXPARAM_Read_APIEncoding                        "UTF-8"
Tried aggregator 3 times.
MIP Presolve eliminated 19132 rows and 30500 columns.
MIP Presolve modified 340 coefficients.
Aggregator did 692 substitutions.
Reduced MIP has 2531 rows, 3401 columns, and 9905 nonzeros.
Reduced MIP has 3233 binaries, 0 generals, 0 SOSs, and 0 indicators.
Presolve time = 0.06 sec. (42.13 ticks)
Found incumbent of value 1096.469175 after 0.11 sec. (68.44 ticks)
Probing fixed 19 vars, tightened 0 bounds.
Probing time = 0.01 sec. (4.45 ticks)
Tried aggregator 1 time.
MIP Presolve eliminated 0 rows and 19 columns.
MIP Presolve modified 98 coefficients.
Reduced MIP has 2531 rows, 3382 columns, and 9867 nonzeros.
Reduced MIP has 3382 binaries, 0 generals, 0 SOSs, and 0 indicators.
Presolve time = 0.01 sec. (8.45 ticks)
Probing time = 0.01 sec. (2.70 ticks)
Clique table members: 6011.
MIP emphasis: balance optimality and feasibility.
MIP search method: dynamic search.
Parallel mode: none, using 1 thread.
Root relaxation solution time = 0.01 sec. (6.15 ticks)

        Nodes                                         Cuts/
   Node  Left     Objective  IInf  Best Integer    Best Bound    ItCnt     Gap

*     0+    0                         1096.4692      -22.2183           102.03%
      0     0      329.0610     1     1096.4692      329.0610      228   69.99%
*     0+    0                          329.0656      329.0610             0.00%
      0     0        cutoff            329.0656      329.0610      228    0.00%
Elapsed time = 0.18 sec. (100.68 ticks, tree = 0.01 MB, solutions = 2)

Root node processing (before b&c):
  Real time             =    0.18 sec. (101.93 ticks)
Sequential b&c:
  Real time             =    0.00 sec. (0.00 ticks)
                          ------------
Total (root+branch&cut) =    0.18 sec. (101.93 ticks)

Solution pool: 2 solutions saved.

MIP - Integer optimal solution:  Objective =  3.2906559700e+02
Solution time =    0.18 sec.  Iterations = 228  Nodes = 0
Deterministic time = 102.03 ticks  (560.85 ticks/sec)

CPLEX> Incumbent solution written to file '/tmp/cmpl.T24497.gsol'.
CPLEX> 
CMPL: Time used for model generation: 1 seconds
CMPL: Time used for solving the model: 1 seconds


Solution written to ASCII file: results/output_generated_conf_0.7/2017-06-05-4/fair-nonlinear.sol

Solver - finished
